33D32945 STP File, STP Format Version 1.0

SECTION Result
Length 28
Time 0,001333
Algorithm KMB
END

SECTION Comment
Name "Prosty graf 5"
END

SECTION Graph
Nodes 10
Edges 21
E 1 2 6
E 1 3 9
E 1 5 4
E 1 6 2
E 2 5 3
E 3 4 4
E 3 6 9
E 2 10 9
E 3 7 7
E 3 8 5
E 5 6 2
E 4 8 1
E 5 7 9
E 4 9 4
E 6 7 8
E 7 8 9
E 7 9 10
E 8 9 3
E 9 10 18
E 7 10 8
E 5 10 9
END

SECTION Terminals
Terminals 4
T 1
T 7
T 9
T 10
END

SECTION Solution
S 6 7 8
S 1 6 2
S 7 10 8
S 7 9 10
END

EOF
